\ Model (null)_copy
\ LP format - for model browsing. Use MPS format to capture full model detail.
Maximize
 
Subject To
 R0: x1 + 0.3486499 w_0_0 <= 0.722
 R5: x1 - 0.0550499 w_0_2 >= 0.355
 R17: - 0.17294590685 x1 + z_0 + 0.1248669447457 l_0_0 <= 0.082306052044
 R18: - 0.17294590685 x1 + z_0 + 0.06139579693175 l_0_0
   >= 0.0140367221647131
 R20: - 0.11499990985 x1 + z_0 + 0.0830299349117 l_0_1 <= 0.06210318018995
 R21: - 0.11499990985 x1 + z_0 + 0.04082496799675 l_0_1
   >= 0.0198849219119381
 R22: l_0_0 + l_0_1 = 1
Bounds
 x1 free
 z_0 free
Binaries
 w_0_0 w_0_2 l_0_0 l_0_1
End
